nK = 2064;
nT = 8;
nI = 21;
L = 29;
TT = 423;
np = 1;
nc = 3;
b = [23, 53, 24, 32, 70, 49, 60, 22, 57, 64, 42, 58, 33, 57, 66, 50, 32, 69, 24, 27, 22];
d = [55, 146, 78, 111, 120, 107, 147, 142, 99, 126, 139, 99, 94, 91, 137, 126, 148, 114, 38, 148, 79];
m = [1.5, 2.3, 2.3, 1, 2.1, 1, 2.1, 1.3, 1.4, 2, 2.2, 1.7, 1.2, 2.1, 1.3, 1.7, 1.7, 1.9, 1.9, 2.1, 1.2];
pt = [0.34, 0.21, 0.22, 0.2, 0.32, 0.3, 0.26, 0.25];
st = [15.3, 8.4, 11.88, 10.2, 17.28, 13.2, 15.08, 11.5];
arc = {<1, 0, 1, 1, 0, 0, 0, [1, 1, 1, 1, 1, 1, 1, 1]>, <2, 1, 2, 1, 0, 0, 0, [1, 1, 1, 1, 1, 1, 1, 1]>, <3, 2, 3, 1, 0, 0, 0, [1, 1, 1, 1, 1, 1, 1, 1]>, <4, 3, 4, 1, 0, 0, 0, [1, 1, 1, 1, 1, 1, 1, 1]>, <5, 4, 5, 1, 0, 0, 0, [1, 1, 1, 1, 1, 1, 1, 1]>, <6, 5, 6, 1, 0, 0, 0, [1, 1, 1, 1, 1, 1, 1, 1]>, <7, 6, 7, 1, 0, 0, 0, [1, 1, 1, 1, 1, 1, 1, 1]>, <8, 7, 8, 1, 0, 0, 0, [1, 1, 1, 1, 1, 1, 1, 1]>, <9, 8, 9, 1, 0, 0, 0, [1, 1, 1, 1, 1, 1, 1, 1]>, <10, 9, 10, 1, 0, 0, 0, [1, 1, 1, 1, 1, 1, 1, 1]>, <11, 10, 11, 1, 0, 0, 0, [1, 1, 1, 1, 1, 1, 1, 1]>, <12, 11, 12, 1, 0, 0, 0, [1, 1, 1, 1, 1, 1, 1, 1]>, <13, 12, 13, 1, 0, 0, 0, [1, 1, 1, 1, 1, 1, 1, 1]>, <14, 13, 14, 1, 0, 0, 0, [1, 1, 1, 1, 1, 1, 1, 1]>, <15, 14, 15, 1, 0, 0, 0, [1, 1, 1, 1, 1, 1, 1, 1]>, <16, 15, 16, 1, 0, 0, 0, [1, 1, 1, 1, 1, 1, 1, 1]>, <17, 16, 17, 1, 0, 0, 0, [1, 1, 1, 1, 1, 1, 1, 1]>, <18, 17, 18, 1, 0, 0, 0, [1, 1, 1, 1, 1, 1, 1, 1]>, <19, 18, 19, 1, 0, 0, 0, [1, 1, 1, 1, 1, 1, 1, 1]>, <20, 19, 20, 1, 0, 0, 0, [1, 1, 1, 1, 1, 1, 1, 1]>, <21, 20, 21, 1, 0, 0, 0, [1, 1, 1, 1, 1, 1, 1, 1]>, <22, 21, 22, 1, 0, 0, 0, [1, 1, 1, 1, 1, 1, 1, 1]>, <23, 22, 23, 1, 0, 0, 0, [1, 1, 1, 1, 1, 1, 1, 1]>, <24, 23, 24, 1, 0, 0, 0, [1, 1, 1, 1, 1, 1, 1, 1]>, <25, 24, 25, 1, 0, 0, 0, [1, 1, 1, 1, 1, 1, 1, 1]>, <26, 25, 26, 1, 0, 0, 0, [1, 1, 1, 1, 1, 1, 1, 1]>, <27, 26, 27, 1, 0, 0, 0, [1, 1, 1, 1, 1, 1, 1, 1]>, <28, 27, 28, 1, 0, 0, 0, [1, 1, 1, 1, 1, 1, 1, 1]>, <29, 28, 29, 1, 0, 0, 0, [1, 1, 1, 1, 1, 1, 1, 1]>, <30, 0, 14, 14, 1, 0, 1, [1, 1, 1, 0, 0, 0, 0, 1]>, <31, 1, 15, 14, 1, 0, 1, [1, 1, 1, 0, 0, 0, 0, 1]>, <32, 2, 16, 14, 1, 0, 1, [1, 1, 1, 0, 0, 0, 0, 1]>, <33, 3, 17, 14, 1, 0, 1, [1, 1, 1, 0, 0, 0, 0, 1]>, <34, 4, 18, 14, 1, 0, 1, [1, 1, 1, 0, 0, 0, 0, 1]>, <35, 5, 19, 14, 1, 0, 1, [1, 1, 1, 0, 0, 0, 0, 1]>, <36, 6, 20, 14, 1, 0, 1, [1, 1, 1, 0, 0, 0, 0, 1]>, <37, 7, 21, 14, 1, 0, 1, [1, 1, 1, 0, 0, 0, 0, 1]>, <38, 8, 22, 14, 1, 0, 1, [1, 1, 1, 0, 0, 0, 0, 1]>, <39, 9, 23, 14, 1, 0, 1, [1, 1, 1, 0, 0, 0, 0, 1]>, <40, 10, 24, 14, 1, 0, 1, [1, 1, 1, 0, 0, 0, 0, 1]>, <41, 11, 25, 14, 1, 0, 1, [1, 1, 1, 0, 0, 0, 0, 1]>, <42, 12, 26, 14, 1, 0, 1, [1, 1, 1, 0, 0, 0, 0, 1]>, <43, 13, 27, 14, 1, 0, 1, [1, 1, 1, 0, 0, 0, 0, 1]>, <44, 14, 28, 14, 1, 0, 1, [1, 1, 1, 0, 0, 0, 0, 1]>, <45, 15, 29, 14, 1, 0, 1, [1, 1, 1, 0, 0, 0, 0, 1]>, <46, 0, 13, 13, 2, 0, 0, [1, 1, 1, 0, 0, 0, 0, 1]>, <47, 1, 14, 13, 2, 0, 0, [1, 1, 1, 0, 0, 0, 0, 1]>, <48, 2, 15, 13, 2, 0, 0, [1, 1, 1, 0, 0, 0, 0, 1]>, <49, 3, 16, 13, 2, 0, 0, [1, 1, 1, 0, 0, 0, 0, 1]>, <50, 4, 17, 13, 2, 0, 0, [1, 1, 1, 0, 0, 0, 0, 1]>, <51, 5, 18, 13, 2, 0, 0, [1, 1, 1, 0, 0, 0, 0, 1]>, <52, 7, 20, 13, 2, 0, 0, [1, 1, 1, 0, 0, 0, 0, 1]>, <53, 8, 21, 13, 2, 0, 0, [1, 1, 1, 0, 0, 0, 0, 1]>, <54, 9, 22, 13, 2, 0, 0, [1, 1, 1, 0, 0, 0, 0, 1]>, <55, 10, 23, 13, 2, 0, 0, [1, 1, 1, 0, 0, 0, 0, 1]>, <56, 11, 24, 13, 2, 0, 0, [1, 1, 1, 0, 0, 0, 0, 1]>, <57, 12, 25, 13, 2, 0, 0, [1, 1, 1, 0, 0, 0, 0, 1]>, <58, 13, 26, 13, 2, 0, 0, [1, 1, 1, 0, 0, 0, 0, 1]>, <59, 14, 27, 13, 2, 0, 0, [1, 1, 1, 0, 0, 0, 0, 1]>, <60, 15, 28, 13, 2, 0, 0, [1, 1, 1, 0, 0, 0, 0, 1]>, <61, 16, 29, 13, 2, 0, 0, [1, 1, 1, 0, 0, 0, 0, 1]>, <62, 0, 14, 14, 3, 0, 0, [0, 0, 0, 0, 1, 1, 1, 1]>, <63, 1, 15, 14, 3, 0, 0, [0, 0, 0, 0, 1, 1, 1, 1]>, <64, 2, 16, 14, 3, 0, 0, [0, 0, 0, 0, 1, 1, 1, 1]>, <65, 3, 17, 14, 3, 0, 0, [0, 0, 0, 0, 1, 1, 1, 1]>, <66, 4, 18, 14, 3, 0, 0, [0, 0, 0, 0, 1, 1, 1, 1]>, <67, 5, 19, 14, 3, 0, 0, [0, 0, 0, 0, 1, 1, 1, 1]>, <68, 6, 20, 14, 3, 0, 0, [0, 0, 0, 0, 1, 1, 1, 1]>, <69, 7, 21, 14, 3, 0, 0, [0, 0, 0, 0, 1, 1, 1, 1]>, <70, 8, 22, 14, 3, 0, 0, [0, 0, 0, 0, 1, 1, 1, 1]>, <71, 9, 23, 14, 3, 0, 0, [0, 0, 0, 0, 1, 1, 1, 1]>, <72, 10, 24, 14, 3, 0, 0, [0, 0, 0, 0, 1, 1, 1, 1]>, <73, 11, 25, 14, 3, 0, 0, [0, 0, 0, 0, 1, 1, 1, 1]>, <74, 12, 26, 14, 3, 0, 0, [0, 0, 0, 0, 1, 1, 1, 1]>, <75, 13, 27, 14, 3, 0, 0, [0, 0, 0, 0, 1, 1, 1, 1]>, <76, 14, 28, 14, 3, 0, 0, [0, 0, 0, 0, 1, 1, 1, 1]>, <77, 15, 29, 14, 3, 0, 0, [0, 0, 0, 0, 1, 1, 1, 1]>, <78, 0, 15, 15, 4, 0, 0, [0, 0, 0, 0, 1, 1, 1, 1]>, <79, 1, 16, 15, 4, 0, 0, [0, 0, 0, 0, 1, 1, 1, 1]>, <80, 2, 17, 15, 4, 0, 0, [0, 0, 0, 0, 1, 1, 1, 1]>, <81, 3, 18, 15, 4, 0, 0, [0, 0, 0, 0, 1, 1, 1, 1]>, <82, 4, 19, 15, 4, 0, 0, [0, 0, 0, 0, 1, 1, 1, 1]>, <83, 5, 20, 15, 4, 0, 0, [0, 0, 0, 0, 1, 1, 1, 1]>, <84, 6, 21, 15, 4, 0, 0, [0, 0, 0, 0, 1, 1, 1, 1]>, <85, 7, 22, 15, 4, 0, 0, [0, 0, 0, 0, 1, 1, 1, 1]>, <86, 8, 23, 15, 4, 0, 0, [0, 0, 0, 0, 1, 1, 1, 1]>, <87, 9, 24, 15, 4, 0, 0, [0, 0, 0, 0, 1, 1, 1, 1]>, <88, 10, 25, 15, 4, 0, 0, [0, 0, 0, 0, 1, 1, 1, 1]>, <89, 11, 26, 15, 4, 0, 0, [0, 0, 0, 0, 1, 1, 1, 1]>, <90, 12, 27, 15, 4, 0, 0, [0, 0, 0, 0, 1, 1, 1, 1]>, <91, 13, 28, 15, 4, 0, 0, [0, 0, 0, 0, 1, 1, 1, 1]>, <92, 14, 29, 15, 4, 0, 0, [0, 0, 0, 0, 1, 1, 1, 1]>, <93, 1, 12, 11, 5, 0, 1, [1, 1, 1, 1, 0, 0, 0, 0]>, <94, 2, 13, 11, 5, 0, 1, [1, 1, 1, 1, 0, 0, 0, 0]>, <95, 3, 14, 11, 5, 0, 1, [1, 1, 1, 1, 0, 0, 0, 0]>, <96, 4, 15, 11, 5, 0, 1, [1, 1, 1, 1, 0, 0, 0, 0]>, <97, 5, 16, 11, 5, 0, 1, [1, 1, 1, 1, 0, 0, 0, 0]>, <98, 9, 20, 11, 5, 0, 1, [1, 1, 1, 1, 0, 0, 0, 0]>, <99, 10, 21, 11, 5, 0, 1, [1, 1, 1, 1, 0, 0, 0, 0]>, <100, 11, 22, 11, 5, 0, 1, [1, 1, 1, 1, 0, 0, 0, 0]>, <101, 12, 23, 11, 5, 0, 1, [1, 1, 1, 1, 0, 0, 0, 0]>, <102, 13, 24, 11, 5, 0, 1, [1, 1, 1, 1, 0, 0, 0, 0]>, <103, 14, 25, 11, 5, 0, 1, [1, 1, 1, 1, 0, 0, 0, 0]>, <104, 15, 26, 11, 5, 0, 1, [1, 1, 1, 1, 0, 0, 0, 0]>, <105, 16, 27, 11, 5, 0, 1, [1, 1, 1, 1, 0, 0, 0, 0]>, <106, 17, 28, 11, 5, 0, 1, [1, 1, 1, 1, 0, 0, 0, 0]>, <107, 18, 29, 11, 5, 0, 1, [1, 1, 1, 1, 0, 0, 0, 0]>, <108, 0, 12, 12, 6, 0, 0, [1, 1, 0, 0, 0, 0, 1, 1]>, <109, 1, 13, 12, 6, 0, 0, [1, 1, 0, 0, 0, 0, 1, 1]>, <110, 2, 14, 12, 6, 0, 0, [1, 1, 0, 0, 0, 0, 1, 1]>, <111, 3, 15, 12, 6, 0, 0, [1, 1, 0, 0, 0, 0, 1, 1]>, <112, 4, 16, 12, 6, 0, 0, [1, 1, 0, 0, 0, 0, 1, 1]>, <113, 5, 17, 12, 6, 0, 0, [1, 1, 0, 0, 0, 0, 1, 1]>, <114, 8, 20, 12, 6, 0, 0, [1, 1, 0, 0, 0, 0, 1, 1]>, <115, 9, 21, 12, 6, 0, 0, [1, 1, 0, 0, 0, 0, 1, 1]>, <116, 10, 22, 12, 6, 0, 0, [1, 1, 0, 0, 0, 0, 1, 1]>, <117, 11, 23, 12, 6, 0, 0, [1, 1, 0, 0, 0, 0, 1, 1]>, <118, 12, 24, 12, 6, 0, 0, [1, 1, 0, 0, 0, 0, 1, 1]>, <119, 13, 25, 12, 6, 0, 0, [1, 1, 0, 0, 0, 0, 1, 1]>, <120, 14, 26, 12, 6, 0, 0, [1, 1, 0, 0, 0, 0, 1, 1]>, <121, 15, 27, 12, 6, 0, 0, [1, 1, 0, 0, 0, 0, 1, 1]>, <122, 16, 28, 12, 6, 0, 0, [1, 1, 0, 0, 0, 0, 1, 1]>, <123, 17, 29, 12, 6, 0, 0, [1, 1, 0, 0, 0, 0, 1, 1]>, <124, 1, 12, 11, 7, 0, 0, [1, 1, 0, 0, 0, 0, 1, 1]>, <125, 2, 13, 11, 7, 0, 0, [1, 1, 0, 0, 0, 0, 1, 1]>, <126, 3, 14, 11, 7, 0, 0, [1, 1, 0, 0, 0, 0, 1, 1]>, <127, 4, 15, 11, 7, 0, 0, [1, 1, 0, 0, 0, 0, 1, 1]>, <128, 5, 16, 11, 7, 0, 0, [1, 1, 0, 0, 0, 0, 1, 1]>, <129, 9, 20, 11, 7, 0, 0, [1, 1, 0, 0, 0, 0, 1, 1]>, <130, 10, 21, 11, 7, 0, 0, [1, 1, 0, 0, 0, 0, 1, 1]>, <131, 11, 22, 11, 7, 0, 0, [1, 1, 0, 0, 0, 0, 1, 1]>, <132, 12, 23, 11, 7, 0, 0, [1, 1, 0, 0, 0, 0, 1, 1]>, <133, 13, 24, 11, 7, 0, 0, [1, 1, 0, 0, 0, 0, 1, 1]>, <134, 14, 25, 11, 7, 0, 0, [1, 1, 0, 0, 0, 0, 1, 1]>, <135, 15, 26, 11, 7, 0, 0, [1, 1, 0, 0, 0, 0, 1, 1]>, <136, 16, 27, 11, 7, 0, 0, [1, 1, 0, 0, 0, 0, 1, 1]>, <137, 17, 28, 11, 7, 0, 0, [1, 1, 0, 0, 0, 0, 1, 1]>, <138, 18, 29, 11, 7, 0, 0, [1, 1, 0, 0, 0, 0, 1, 1]>, <139, 0, 13, 13, 8, 0, 1, [1, 1, 1, 0, 0, 0, 0, 1]>, <140, 1, 14, 13, 8, 0, 1, [1, 1, 1, 0, 0, 0, 0, 1]>, <141, 2, 15, 13, 8, 0, 1, [1, 1, 1, 0, 0, 0, 0, 1]>, <142, 3, 16, 13, 8, 0, 1, [1, 1, 1, 0, 0, 0, 0, 1]>, <143, 4, 17, 13, 8, 0, 1, [1, 1, 1, 0, 0, 0, 0, 1]>, <144, 5, 18, 13, 8, 0, 1, [1, 1, 1, 0, 0, 0, 0, 1]>, <145, 7, 20, 13, 8, 0, 1, [1, 1, 1, 0, 0, 0, 0, 1]>, <146, 8, 21, 13, 8, 0, 1, [1, 1, 1, 0, 0, 0, 0, 1]>, <147, 9, 22, 13, 8, 0, 1, [1, 1, 1, 0, 0, 0, 0, 1]>, <148, 10, 23, 13, 8, 0, 1, [1, 1, 1, 0, 0, 0, 0, 1]>, <149, 11, 24, 13, 8, 0, 1, [1, 1, 1, 0, 0, 0, 0, 1]>, <150, 12, 25, 13, 8, 0, 1, [1, 1, 1, 0, 0, 0, 0, 1]>, <151, 13, 26, 13, 8, 0, 1, [1, 1, 1, 0, 0, 0, 0, 1]>, <152, 14, 27, 13, 8, 0, 1, [1, 1, 1, 0, 0, 0, 0, 1]>, <153, 15, 28, 13, 8, 0, 1, [1, 1, 1, 0, 0, 0, 0, 1]>, <154, 16, 29, 13, 8, 0, 1, [1, 1, 1, 0, 0, 0, 0, 1]>, <155, 0, 12, 12, 9, 0, 1, [0, 0, 0, 0, 1, 1, 1, 1]>, <156, 1, 13, 12, 9, 0, 1, [0, 0, 0, 0, 1, 1, 1, 1]>, <157, 2, 14, 12, 9, 0, 1, [0, 0, 0, 0, 1, 1, 1, 1]>, <158, 3, 15, 12, 9, 0, 1, [0, 0, 0, 0, 1, 1, 1, 1]>, <159, 4, 16, 12, 9, 0, 1, [0, 0, 0, 0, 1, 1, 1, 1]>, <160, 5, 17, 12, 9, 0, 1, [0, 0, 0, 0, 1, 1, 1, 1]>, <161, 8, 20, 12, 9, 0, 1, [0, 0, 0, 0, 1, 1, 1, 1]>, <162, 9, 21, 12, 9, 0, 1, [0, 0, 0, 0, 1, 1, 1, 1]>, <163, 10, 22, 12, 9, 0, 1, [0, 0, 0, 0, 1, 1, 1, 1]>, <164, 11, 23, 12, 9, 0, 1, [0, 0, 0, 0, 1, 1, 1, 1]>, <165, 12, 24, 12, 9, 0, 1, [0, 0, 0, 0, 1, 1, 1, 1]>, <166, 13, 25, 12, 9, 0, 1, [0, 0, 0, 0, 1, 1, 1, 1]>, <167, 14, 26, 12, 9, 0, 1, [0, 0, 0, 0, 1, 1, 1, 1]>, <168, 15, 27, 12, 9, 0, 1, [0, 0, 0, 0, 1, 1, 1, 1]>, <169, 16, 28, 12, 9, 0, 1, [0, 0, 0, 0, 1, 1, 1, 1]>, <170, 17, 29, 12, 9, 0, 1, [0, 0, 0, 0, 1, 1, 1, 1]>, <171, 0, 15, 15, 10, 0, 1, [0, 0, 0, 1, 1, 1, 1, 0]>, <172, 1, 16, 15, 10, 0, 1, [0, 0, 0, 1, 1, 1, 1, 0]>, <173, 2, 17, 15, 10, 0, 1, [0, 0, 0, 1, 1, 1, 1, 0]>, <174, 3, 18, 15, 10, 0, 1, [0, 0, 0, 1, 1, 1, 1, 0]>, <175, 4, 19, 15, 10, 0, 1, [0, 0, 0, 1, 1, 1, 1, 0]>, <176, 5, 20, 15, 10, 0, 1, [0, 0, 0, 1, 1, 1, 1, 0]>, <177, 6, 21, 15, 10, 0, 1, [0, 0, 0, 1, 1, 1, 1, 0]>, <178, 7, 22, 15, 10, 0, 1, [0, 0, 0, 1, 1, 1, 1, 0]>, <179, 8, 23, 15, 10, 0, 1, [0, 0, 0, 1, 1, 1, 1, 0]>, <180, 9, 24, 15, 10, 0, 1, [0, 0, 0, 1, 1, 1, 1, 0]>, <181, 10, 25, 15, 10, 0, 1, [0, 0, 0, 1, 1, 1, 1, 0]>, <182, 11, 26, 15, 10, 0, 1, [0, 0, 0, 1, 1, 1, 1, 0]>, <183, 12, 27, 15, 10, 0, 1, [0, 0, 0, 1, 1, 1, 1, 0]>, <184, 13, 28, 15, 10, 0, 1, [0, 0, 0, 1, 1, 1, 1, 0]>, <185, 14, 29, 15, 10, 0, 1, [0, 0, 0, 1, 1, 1, 1, 0]>, <186, 0, 13, 13, 11, 0, 0, [0, 0, 0, 1, 1, 1, 1, 0]>, <187, 1, 14, 13, 11, 0, 0, [0, 0, 0, 1, 1, 1, 1, 0]>, <188, 2, 15, 13, 11, 0, 0, [0, 0, 0, 1, 1, 1, 1, 0]>, <189, 3, 16, 13, 11, 0, 0, [0, 0, 0, 1, 1, 1, 1, 0]>, <190, 4, 17, 13, 11, 0, 0, [0, 0, 0, 1, 1, 1, 1, 0]>, <191, 5, 18, 13, 11, 0, 0, [0, 0, 0, 1, 1, 1, 1, 0]>, <192, 7, 20, 13, 11, 0, 0, [0, 0, 0, 1, 1, 1, 1, 0]>, <193, 8, 21, 13, 11, 0, 0, [0, 0, 0, 1, 1, 1, 1, 0]>, <194, 9, 22, 13, 11, 0, 0, [0, 0, 0, 1, 1, 1, 1, 0]>, <195, 10, 23, 13, 11, 0, 0, [0, 0, 0, 1, 1, 1, 1, 0]>, <196, 11, 24, 13, 11, 0, 0, [0, 0, 0, 1, 1, 1, 1, 0]>, <197, 12, 25, 13, 11, 0, 0, [0, 0, 0, 1, 1, 1, 1, 0]>, <198, 13, 26, 13, 11, 0, 0, [0, 0, 0, 1, 1, 1, 1, 0]>, <199, 14, 27, 13, 11, 0, 0, [0, 0, 0, 1, 1, 1, 1, 0]>, <200, 15, 28, 13, 11, 0, 0, [0, 0, 0, 1, 1, 1, 1, 0]>, <201, 16, 29, 13, 11, 0, 0, [0, 0, 0, 1, 1, 1, 1, 0]>, <202, 0, 12, 12, 12, 0, 1, [1, 1, 0, 0, 0, 0, 1, 1]>, <203, 1, 13, 12, 12, 0, 1, [1, 1, 0, 0, 0, 0, 1, 1]>, <204, 2, 14, 12, 12, 0, 1, [1, 1, 0, 0, 0, 0, 1, 1]>, <205, 3, 15, 12, 12, 0, 1, [1, 1, 0, 0, 0, 0, 1, 1]>, <206, 4, 16, 12, 12, 0, 1, [1, 1, 0, 0, 0, 0, 1, 1]>, <207, 5, 17, 12, 12, 0, 1, [1, 1, 0, 0, 0, 0, 1, 1]>, <208, 8, 20, 12, 12, 0, 1, [1, 1, 0, 0, 0, 0, 1, 1]>, <209, 9, 21, 12, 12, 0, 1, [1, 1, 0, 0, 0, 0, 1, 1]>, <210, 10, 22, 12, 12, 0, 1, [1, 1, 0, 0, 0, 0, 1, 1]>, <211, 11, 23, 12, 12, 0, 1, [1, 1, 0, 0, 0, 0, 1, 1]>, <212, 12, 24, 12, 12, 0, 1, [1, 1, 0, 0, 0, 0, 1, 1]>, <213, 13, 25, 12, 12, 0, 1, [1, 1, 0, 0, 0, 0, 1, 1]>, <214, 14, 26, 12, 12, 0, 1, [1, 1, 0, 0, 0, 0, 1, 1]>, <215, 15, 27, 12, 12, 0, 1, [1, 1, 0, 0, 0, 0, 1, 1]>, <216, 16, 28, 12, 12, 0, 1, [1, 1, 0, 0, 0, 0, 1, 1]>, <217, 17, 29, 12, 12, 0, 1, [1, 1, 0, 0, 0, 0, 1, 1]>, <218, 1, 12, 11, 13, 0, 0, [1, 1, 1, 0, 0, 0, 0, 1]>, <219, 2, 13, 11, 13, 0, 0, [1, 1, 1, 0, 0, 0, 0, 1]>, <220, 3, 14, 11, 13, 0, 0, [1, 1, 1, 0, 0, 0, 0, 1]>, <221, 4, 15, 11, 13, 0, 0, [1, 1, 1, 0, 0, 0, 0, 1]>, <222, 5, 16, 11, 13, 0, 0, [1, 1, 1, 0, 0, 0, 0, 1]>, <223, 9, 20, 11, 13, 0, 0, [1, 1, 1, 0, 0, 0, 0, 1]>, <224, 10, 21, 11, 13, 0, 0, [1, 1, 1, 0, 0, 0, 0, 1]>, <225, 11, 22, 11, 13, 0, 0, [1, 1, 1, 0, 0, 0, 0, 1]>, <226, 12, 23, 11, 13, 0, 0, [1, 1, 1, 0, 0, 0, 0, 1]>, <227, 13, 24, 11, 13, 0, 0, [1, 1, 1, 0, 0, 0, 0, 1]>, <228, 14, 25, 11, 13, 0, 0, [1, 1, 1, 0, 0, 0, 0, 1]>, <229, 15, 26, 11, 13, 0, 0, [1, 1, 1, 0, 0, 0, 0, 1]>, <230, 16, 27, 11, 13, 0, 0, [1, 1, 1, 0, 0, 0, 0, 1]>, <231, 17, 28, 11, 13, 0, 0, [1, 1, 1, 0, 0, 0, 0, 1]>, <232, 18, 29, 11, 13, 0, 0, [1, 1, 1, 0, 0, 0, 0, 1]>, <233, 0, 13, 13, 14, 1, 0, [1, 1, 0, 0, 0, 0, 1, 1]>, <234, 1, 14, 13, 14, 1, 0, [1, 1, 0, 0, 0, 0, 1, 1]>, <235, 2, 15, 13, 14, 1, 0, [1, 1, 0, 0, 0, 0, 1, 1]>, <236, 3, 16, 13, 14, 1, 0, [1, 1, 0, 0, 0, 0, 1, 1]>, <237, 4, 17, 13, 14, 1, 0, [1, 1, 0, 0, 0, 0, 1, 1]>, <238, 5, 18, 13, 14, 1, 0, [1, 1, 0, 0, 0, 0, 1, 1]>, <239, 7, 20, 13, 14, 1, 0, [1, 1, 0, 0, 0, 0, 1, 1]>, <240, 8, 21, 13, 14, 1, 0, [1, 1, 0, 0, 0, 0, 1, 1]>, <241, 9, 22, 13, 14, 1, 0, [1, 1, 0, 0, 0, 0, 1, 1]>, <242, 10, 23, 13, 14, 1, 0, [1, 1, 0, 0, 0, 0, 1, 1]>, <243, 11, 24, 13, 14, 1, 0, [1, 1, 0, 0, 0, 0, 1, 1]>, <244, 12, 25, 13, 14, 1, 0, [1, 1, 0, 0, 0, 0, 1, 1]>, <245, 13, 26, 13, 14, 1, 0, [1, 1, 0, 0, 0, 0, 1, 1]>, <246, 14, 27, 13, 14, 1, 0, [1, 1, 0, 0, 0, 0, 1, 1]>, <247, 15, 28, 13, 14, 1, 0, [1, 1, 0, 0, 0, 0, 1, 1]>, <248, 16, 29, 13, 14, 1, 0, [1, 1, 0, 0, 0, 0, 1, 1]>, <249, 2, 12, 10, 15, 0, 0, [0, 0, 0, 1, 1, 1, 1, 0]>, <250, 3, 13, 10, 15, 0, 0, [0, 0, 0, 1, 1, 1, 1, 0]>, <251, 4, 14, 10, 15, 0, 0, [0, 0, 0, 1, 1, 1, 1, 0]>, <252, 5, 15, 10, 15, 0, 0, [0, 0, 0, 1, 1, 1, 1, 0]>, <253, 10, 20, 10, 15, 0, 0, [0, 0, 0, 1, 1, 1, 1, 0]>, <254, 11, 21, 10, 15, 0, 0, [0, 0, 0, 1, 1, 1, 1, 0]>, <255, 12, 22, 10, 15, 0, 0, [0, 0, 0, 1, 1, 1, 1, 0]>, <256, 14, 24, 10, 15, 0, 0, [0, 0, 0, 1, 1, 1, 1, 0]>, <257, 15, 25, 10, 15, 0, 0, [0, 0, 0, 1, 1, 1, 1, 0]>, <258, 16, 26, 10, 15, 0, 0, [0, 0, 0, 1, 1, 1, 1, 0]>, <259, 17, 27, 10, 15, 0, 0, [0, 0, 0, 1, 1, 1, 1, 0]>, <260, 18, 28, 10, 15, 0, 0, [0, 0, 0, 1, 1, 1, 1, 0]>, <261, 19, 29, 10, 15, 0, 0, [0, 0, 0, 1, 1, 1, 1, 0]>, <262, 1, 12, 11, 16, 0, 1, [1, 0, 0, 0, 0, 1, 1, 1]>, <263, 2, 13, 11, 16, 0, 1, [1, 0, 0, 0, 0, 1, 1, 1]>, <264, 3, 14, 11, 16, 0, 1, [1, 0, 0, 0, 0, 1, 1, 1]>, <265, 4, 15, 11, 16, 0, 1, [1, 0, 0, 0, 0, 1, 1, 1]>, <266, 5, 16, 11, 16, 0, 1, [1, 0, 0, 0, 0, 1, 1, 1]>, <267, 9, 20, 11, 16, 0, 1, [1, 0, 0, 0, 0, 1, 1, 1]>, <268, 10, 21, 11, 16, 0, 1, [1, 0, 0, 0, 0, 1, 1, 1]>, <269, 11, 22, 11, 16, 0, 1, [1, 0, 0, 0, 0, 1, 1, 1]>, <270, 12, 23, 11, 16, 0, 1, [1, 0, 0, 0, 0, 1, 1, 1]>, <271, 13, 24, 11, 16, 0, 1, [1, 0, 0, 0, 0, 1, 1, 1]>, <272, 14, 25, 11, 16, 0, 1, [1, 0, 0, 0, 0, 1, 1, 1]>, <273, 15, 26, 11, 16, 0, 1, [1, 0, 0, 0, 0, 1, 1, 1]>, <274, 16, 27, 11, 16, 0, 1, [1, 0, 0, 0, 0, 1, 1, 1]>, <275, 17, 28, 11, 16, 0, 1, [1, 0, 0, 0, 0, 1, 1, 1]>, <276, 18, 29, 11, 16, 0, 1, [1, 0, 0, 0, 0, 1, 1, 1]>, <277, 1, 12, 11, 17, 0, 0, [0, 0, 1, 1, 1, 1, 0, 0]>, <278, 2, 13, 11, 17, 0, 0, [0, 0, 1, 1, 1, 1, 0, 0]>, <279, 3, 14, 11, 17, 0, 0, [0, 0, 1, 1, 1, 1, 0, 0]>, <280, 4, 15, 11, 17, 0, 0, [0, 0, 1, 1, 1, 1, 0, 0]>, <281, 5, 16, 11, 17, 0, 0, [0, 0, 1, 1, 1, 1, 0, 0]>, <282, 9, 20, 11, 17, 0, 0, [0, 0, 1, 1, 1, 1, 0, 0]>, <283, 10, 21, 11, 17, 0, 0, [0, 0, 1, 1, 1, 1, 0, 0]>, <284, 11, 22, 11, 17, 0, 0, [0, 0, 1, 1, 1, 1, 0, 0]>, <285, 12, 23, 11, 17, 0, 0, [0, 0, 1, 1, 1, 1, 0, 0]>, <286, 13, 24, 11, 17, 0, 0, [0, 0, 1, 1, 1, 1, 0, 0]>, <287, 14, 25, 11, 17, 0, 0, [0, 0, 1, 1, 1, 1, 0, 0]>, <288, 15, 26, 11, 17, 0, 0, [0, 0, 1, 1, 1, 1, 0, 0]>, <289, 16, 27, 11, 17, 0, 0, [0, 0, 1, 1, 1, 1, 0, 0]>, <290, 17, 28, 11, 17, 0, 0, [0, 0, 1, 1, 1, 1, 0, 0]>, <291, 18, 29, 11, 17, 0, 0, [0, 0, 1, 1, 1, 1, 0, 0]>, <292, 0, 13, 13, 18, 1, 0, [1, 1, 1, 0, 0, 0, 0, 1]>, <293, 1, 14, 13, 18, 1, 0, [1, 1, 1, 0, 0, 0, 0, 1]>, <294, 2, 15, 13, 18, 1, 0, [1, 1, 1, 0, 0, 0, 0, 1]>, <295, 3, 16, 13, 18, 1, 0, [1, 1, 1, 0, 0, 0, 0, 1]>, <296, 4, 17, 13, 18, 1, 0, [1, 1, 1, 0, 0, 0, 0, 1]>, <297, 5, 18, 13, 18, 1, 0, [1, 1, 1, 0, 0, 0, 0, 1]>, <298, 7, 20, 13, 18, 1, 0, [1, 1, 1, 0, 0, 0, 0, 1]>, <299, 8, 21, 13, 18, 1, 0, [1, 1, 1, 0, 0, 0, 0, 1]>, <300, 9, 22, 13, 18, 1, 0, [1, 1, 1, 0, 0, 0, 0, 1]>, <301, 10, 23, 13, 18, 1, 0, [1, 1, 1, 0, 0, 0, 0, 1]>, <302, 11, 24, 13, 18, 1, 0, [1, 1, 1, 0, 0, 0, 0, 1]>, <303, 12, 25, 13, 18, 1, 0, [1, 1, 1, 0, 0, 0, 0, 1]>, <304, 13, 26, 13, 18, 1, 0, [1, 1, 1, 0, 0, 0, 0, 1]>, <305, 14, 27, 13, 18, 1, 0, [1, 1, 1, 0, 0, 0, 0, 1]>, <306, 15, 28, 13, 18, 1, 0, [1, 1, 1, 0, 0, 0, 0, 1]>, <307, 16, 29, 13, 18, 1, 0, [1, 1, 1, 0, 0, 0, 0, 1]>, <308, 0, 14, 14, 19, 0, 0, [0, 0, 1, 1, 1, 1, 0, 0]>, <309, 1, 15, 14, 19, 0, 0, [0, 0, 1, 1, 1, 1, 0, 0]>, <310, 2, 16, 14, 19, 0, 0, [0, 0, 1, 1, 1, 1, 0, 0]>, <311, 3, 17, 14, 19, 0, 0, [0, 0, 1, 1, 1, 1, 0, 0]>, <312, 4, 18, 14, 19, 0, 0, [0, 0, 1, 1, 1, 1, 0, 0]>, <313, 5, 19, 14, 19, 0, 0, [0, 0, 1, 1, 1, 1, 0, 0]>, <314, 6, 20, 14, 19, 0, 0, [0, 0, 1, 1, 1, 1, 0, 0]>, <315, 7, 21, 14, 19, 0, 0, [0, 0, 1, 1, 1, 1, 0, 0]>, <316, 8, 22, 14, 19, 0, 0, [0, 0, 1, 1, 1, 1, 0, 0]>, <317, 9, 23, 14, 19, 0, 0, [0, 0, 1, 1, 1, 1, 0, 0]>, <318, 10, 24, 14, 19, 0, 0, [0, 0, 1, 1, 1, 1, 0, 0]>, <319, 11, 25, 14, 19, 0, 0, [0, 0, 1, 1, 1, 1, 0, 0]>, <320, 12, 26, 14, 19, 0, 0, [0, 0, 1, 1, 1, 1, 0, 0]>, <321, 13, 27, 14, 19, 0, 0, [0, 0, 1, 1, 1, 1, 0, 0]>, <322, 14, 28, 14, 19, 0, 0, [0, 0, 1, 1, 1, 1, 0, 0]>, <323, 15, 29, 14, 19, 0, 0, [0, 0, 1, 1, 1, 1, 0, 0]>, <324, 0, 15, 15, 20, 0, 0, [1, 1, 1, 1, 0, 0, 0, 0]>, <325, 1, 16, 15, 20, 0, 0, [1, 1, 1, 1, 0, 0, 0, 0]>, <326, 2, 17, 15, 20, 0, 0, [1, 1, 1, 1, 0, 0, 0, 0]>, <327, 3, 18, 15, 20, 0, 0, [1, 1, 1, 1, 0, 0, 0, 0]>, <328, 4, 19, 15, 20, 0, 0, [1, 1, 1, 1, 0, 0, 0, 0]>, <329, 5, 20, 15, 20, 0, 0, [1, 1, 1, 1, 0, 0, 0, 0]>, <330, 6, 21, 15, 20, 0, 0, [1, 1, 1, 1, 0, 0, 0, 0]>, <331, 7, 22, 15, 20, 0, 0, [1, 1, 1, 1, 0, 0, 0, 0]>, <332, 8, 23, 15, 20, 0, 0, [1, 1, 1, 1, 0, 0, 0, 0]>, <333, 9, 24, 15, 20, 0, 0, [1, 1, 1, 1, 0, 0, 0, 0]>, <334, 10, 25, 15, 20, 0, 0, [1, 1, 1, 1, 0, 0, 0, 0]>, <335, 11, 26, 15, 20, 0, 0, [1, 1, 1, 1, 0, 0, 0, 0]>, <336, 12, 27, 15, 20, 0, 0, [1, 1, 1, 1, 0, 0, 0, 0]>, <337, 13, 28, 15, 20, 0, 0, [1, 1, 1, 1, 0, 0, 0, 0]>, <338, 14, 29, 15, 20, 0, 0, [1, 1, 1, 1, 0, 0, 0, 0]>, <339, 0, 15, 15, 21, 0, 1, [0, 0, 0, 1, 1, 1, 1, 0]>, <340, 1, 16, 15, 21, 0, 1, [0, 0, 0, 1, 1, 1, 1, 0]>, <341, 2, 17, 15, 21, 0, 1, [0, 0, 0, 1, 1, 1, 1, 0]>, <342, 3, 18, 15, 21, 0, 1, [0, 0, 0, 1, 1, 1, 1, 0]>, <343, 4, 19, 15, 21, 0, 1, [0, 0, 0, 1, 1, 1, 1, 0]>, <344, 5, 20, 15, 21, 0, 1, [0, 0, 0, 1, 1, 1, 1, 0]>, <345, 6, 21, 15, 21, 0, 1, [0, 0, 0, 1, 1, 1, 1, 0]>, <346, 7, 22, 15, 21, 0, 1, [0, 0, 0, 1, 1, 1, 1, 0]>, <347, 8, 23, 15, 21, 0, 1, [0, 0, 0, 1, 1, 1, 1, 0]>, <348, 9, 24, 15, 21, 0, 1, [0, 0, 0, 1, 1, 1, 1, 0]>, <349, 10, 25, 15, 21, 0, 1, [0, 0, 0, 1, 1, 1, 1, 0]>, <350, 11, 26, 15, 21, 0, 1, [0, 0, 0, 1, 1, 1, 1, 0]>, <351, 12, 27, 15, 21, 0, 1, [0, 0, 0, 1, 1, 1, 1, 0]>, <352, 13, 28, 15, 21, 0, 1, [0, 0, 0, 1, 1, 1, 1, 0]>, <353, 14, 29, 15, 21, 0, 1, [0, 0, 0, 1, 1, 1, 1, 0]>};
